50 8
507 806
586 750
154 240
179 505
270 613
806 200
98 264
248 93
414 543
673 664
214 827
41 256
131 474
473 286
664 671
277 685
460 826
211 641
229 235
780 260
754 804
50 403
175 294
379 189
626 598
753 903
458 271
408 931
572 691
117 758
244 262
250 704
819 521
110 112
74 339
786 652
251 606
98 221
705 730
684 920
428 778
272 913
217 712
468 400
678 707
66 399
685 705
219 698
515 775
303 609
